1 -1 -2 0
1 -1 3 0
1 -1 -4 0
1 -2 -1 0
1 -5 6 0
1 5 -7 0
1 5 8 0
1 -9 10 0
1 9 11 0
1 -12 13 0
1 -12 -14 0
1 12 2 0
1 12 15 0
1 -12 -1 0
1 8 16 0
1 -8 -17 0
1 -8 -13 0
1 -8 12 0
1 8 -18 0
1 -8 -19 0
1 -3 -20 0
1 3 -9 0
1 3 21 0
1 3 22 0
1 3 -5 0
1 3 -1 0
1 3 -4 0
1 -4 17 0
1 -4 -2 0
1 -4 -18 0
1 -4 23 0
1 -4 5 0
1 -4 -24 0
1 25 -7 0
1 -25 -11 0
1 -25 23 0
1 -14 -6 0
1 14 12 0
1 -14 25 0
1 -14 8 0
1 19 7 0
1 -19 -13 0
1 19 26 0
1 19 -27 0
1 -19 -22 0
1 19 28 0
1 -13 7 0
1 13 -20 0
1 13 -11 0
1 13 19 0
1 11 13 0
1 11 -14 0
1 -11 9 0
1 -11 -29 0
1 -7 -30 0
1 7 13 0
1 7 14 0
1 7 31 0
1 7 -11 0
1 -10 17 0
1 -10 -9 0
1 -10 -32 0
1 -6 33 0
1 -6 13 0
1 -6 34 0
1 -6 -32 0
1 6 -5 0
1 6 -29 0
1 -31 35 0
1 31 26 0
1 31 18 0
1 -31 27 0
1 35 -36 0
1 -35 31 0
1 35 27 0
1 -35 28 0
1 -37 -26 0
1 37 -36 0
1 37 -27 0
1 -30 -7 0
1 -30 -26 0
1 30 36 0
1 30 27 0
1 -28 -36 0
1 28 -37 0
1 -28 -31 0
1 28 -19 0
1 36 35 0
1 36 -28 0
1 27 -35 0
1 27 -34 0
1 27 -37 0
1 -27 -19 0
1 27 -38 0
1 -27 29 0
1 26 30 0
1 -26 35 0
1 -26 -39 0
1 26 34 0
1 -26 -37 0
1 -26 -19 0
1 26 -27 0
1 26 -29 0
1 23 40 0
1 -23 41 0
1 23 -3 0
1 23 42 0
1 -23 -4 0
1 43 -14 0
1 -43 -41 0
1 -43 3 0
1 -22 20 0
1 -22 -44 0
1 22 3 0
1 -22 45 0
1 22 4 0
1 20 40 0
1 20 44 0
1 20 46 0
1 20 -4 0
1 -41 -42 0
1 -41 -33 0
1 -41 -20 0
1 -41 43 0
1 -41 23 0
1 42 -43 0
1 42 -18 0
1 -40 -20 0
1 -45 -43 0
1 45 22 0
1 18 47 0
1 -17 -44 0
1 17 -3 0
1 17 -10 0
1 17 -18 0
1 17 48 0
1 -17 -4 0
1 -32 44 0
1 -32 21 0
1 -32 -15 0
1 -32 -10 0
1 32 46 0
1 -32 -48 0
1 33 -41 0
1 33 47 0
1 -33 -32 0
1 33 42 0
1 -44 -17 0
1 48 44 0
1 48 34 0
1 -48 18 0
1 47 -32 0
1 47 18 0
1 -34 -26 0
1 -34 11 0
1 -34 -24 0
1 -29 21 0
1 29 -10 0
1 29 11 0
1 29 27 0
1 -29 -48 0
1 -39 16 0
1 -39 -27 0
1 38 -26 0
1 38 44 0
1 38 39 0
1 38 15 0
1 38 24 0
1 -15 -16 0
1 -15 -12 0
1 16 -33 0
1 -16 -39 0
1 -16 34 0
1 -16 15 0
1 16 -32 0
1 21 3 0
1 21 -38 0
1 21 -24 0
1 24 -21 0
1 -24 34 0
1 -24 -4 0
